c n orig vars 58
p cnf 60 96
1 2 -59 0
3 4 -59 0
5 6 -59 0
7 8 -59 0
9 10 -59 0
11 12 -59 0
13 14 -59 0
15 16 -59 0
17 18 -59 0
19 20 -59 0
21 22 -59 0
23 24 -59 0
25 26 -59 0
27 28 -59 0
29 35 41 47 53 -60 0
30 36 42 48 54 -60 0
31 37 43 49 55 -60 0
32 38 44 50 56 -60 0
33 39 45 51 57 -60 0
34 40 46 52 58 -60 0
-29 -30 -60 0
-29 -31 -60 0
-29 -32 -60 0
-29 -33 -60 0
-29 -34 -60 0
-30 -31 -60 0
-30 -32 -60 0
-30 -33 -60 0
-30 -34 -60 0
-31 -32 -60 0
-31 -33 -60 0
-31 -34 -60 0
-32 -33 -60 0
-32 -34 -60 0
-33 -34 -60 0
-35 -36 -60 0
-35 -37 -60 0
-35 -38 -60 0
-35 -39 -60 0
-35 -40 -60 0
-36 -37 -60 0
-36 -38 -60 0
-36 -39 -60 0
-36 -40 -60 0
-37 -38 -60 0
-37 -39 -60 0
-37 -40 -60 0
-38 -39 -60 0
-38 -40 -60 0
-39 -40 -60 0
-41 -42 -60 0
-41 -43 -60 0
-41 -44 -60 0
-41 -45 -60 0
-41 -46 -60 0
-42 -43 -60 0
-42 -44 -60 0
-42 -45 -60 0
-42 -46 -60 0
-43 -44 -60 0
-43 -45 -60 0
-43 -46 -60 0
-44 -45 -60 0
-44 -46 -60 0
-45 -46 -60 0
-47 -48 -60 0
-47 -49 -60 0
-47 -50 -60 0
-47 -51 -60 0
-47 -52 -60 0
-48 -49 -60 0
-48 -50 -60 0
-48 -51 -60 0
-48 -52 -60 0
-49 -50 -60 0
-49 -51 -60 0
-49 -52 -60 0
-50 -51 -60 0
-50 -52 -60 0
-51 -52 -60 0
-53 -54 -60 0
-53 -55 -60 0
-53 -56 -60 0
-53 -57 -60 0
-53 -58 -60 0
-54 -55 -60 0
-54 -56 -60 0
-54 -57 -60 0
-54 -58 -60 0
-55 -56 -60 0
-55 -57 -60 0
-55 -58 -60 0
-56 -57 -60 0
-56 -58 -60 0
-57 -58 -60 0
59 60 0
